(set-info :smt-lib-version 2.6)
(set-logic QF_UFLRA)
(set-info :source |
MathSat group

|)
(set-info :category "random")
(set-info :status sat)
(declare-fun x0 () Real)
(declare-fun x1 () Real)
(declare-fun x2 () Real)
(declare-fun x3 () Real)
(declare-fun x4 () Real)
(declare-fun x5 () Real)
(declare-fun x6 () Real)
(declare-fun x7 () Real)
(declare-fun x8 () Real)
(declare-fun x9 () Real)
(declare-fun x10 () Real)
(declare-fun x11 () Real)
(declare-fun x12 () Real)
(declare-fun x13 () Real)
(declare-fun x14 () Real)
(declare-fun x15 () Real)
(declare-fun x16 () Real)
(declare-fun x17 () Real)
(declare-fun x18 () Real)
(declare-fun x19 () Real)
(declare-fun x20 () Real)
(declare-fun x21 () Real)
(declare-fun x22 () Real)
(declare-fun x23 () Real)
(declare-fun x24 () Real)
(declare-fun x25 () Real)
(declare-fun x26 () Real)
(declare-fun x27 () Real)
(declare-fun x28 () Real)
(declare-fun x29 () Real)
(declare-fun x30 () Real)
(declare-fun x31 () Real)
(declare-fun x32 () Real)
(declare-fun x33 () Real)
(declare-fun x34 () Real)
(declare-fun x35 () Real)
(declare-fun x36 () Real)
(declare-fun x37 () Real)
(declare-fun x38 () Real)
(declare-fun x39 () Real)
(declare-fun f0_1 (Real) Real)
(declare-fun f0_2 (Real Real) Real)
(declare-fun f0_3 (Real Real Real) Real)
(declare-fun f0_4 (Real Real Real Real) Real)
(declare-fun P0 () Bool)
(declare-fun P1 () Bool)
(declare-fun P2 () Bool)
(declare-fun P3 () Bool)
(declare-fun P4 () Bool)
(declare-fun P5 () Bool)
(declare-fun P6 () Bool)
(declare-fun P7 () Bool)
(declare-fun P8 () Bool)
(declare-fun P9 () Bool)
(declare-fun P10 () Bool)
(declare-fun P11 () Bool)
(declare-fun P12 () Bool)
(declare-fun P13 () Bool)
(declare-fun P14 () Bool)
(declare-fun P15 () Bool)
(declare-fun P16 () Bool)
(declare-fun P17 () Bool)
(declare-fun P18 () Bool)
(declare-fun P19 () Bool)
(declare-fun P20 () Bool)
(declare-fun P21 () Bool)
(declare-fun P22 () Bool)
(declare-fun P23 () Bool)
(declare-fun P24 () Bool)
(declare-fun P25 () Bool)
(declare-fun P26 () Bool)
(declare-fun P27 () Bool)
(declare-fun P28 () Bool)
(declare-fun P29 () Bool)
(declare-fun P30 () Bool)
(declare-fun P31 () Bool)
(declare-fun P32 () Bool)
(declare-fun P33 () Bool)
(declare-fun P34 () Bool)
(declare-fun P35 () Bool)
(declare-fun P36 () Bool)
(declare-fun P37 () Bool)
(declare-fun P38 () Bool)
(declare-fun P39 () Bool)
(assert (let ((?v_73 (<= (- (+ (* 42 x7) (* 26 x4)) (* 35 x9)) 25)) (?v_74 (distinct (- (- (* 47 x1) (* 4 x18)) (* 25 x15)) 11)) (?v_55 (* 24 x29)) (?v_184 (< (- (+ (* 28 x31) (* 14 x25)) (* 19 x26)) 2)) (?v_19 (< (- (- (* 31 x30) (* 57 x31)) (* 20 x34)) 20)) (?v_104 (< (- (+ (* 25 x24) (* 38 x3)) (* 20 x2)) 43)) (?v_160 (* 41 x16)) (?v_159 (<= (- (+ (* 9 x8) (* 9 x2)) (* 57 x1)) 8)) (?v_7 (distinct (f0_2 x39 x1) (f0_2 x35 x32))) (?v_53 (distinct (f0_2 x23 x7) (f0_2 x26 x27))) (?v_103 (= (f0_1 x38) x20)) (?v_158 (= x18 (f0_2 x16 x4))) (?v_117 (distinct (f0_2 x29 x32) x12)) (?v_31 (distinct (f0_2 x20 x24) (f0_1 x7))) (?v_109 (f0_1 x11))) (let ((?v_86 (distinct ?v_109 (f0_2 x20 x0))) (?v_139 (distinct x29 (f0_1 x22))) (?v_24 (distinct (f0_2 x33 x9) (f0_2 x22 x24))) (?v_41 (distinct (f0_2 x17 x27) (f0_2 x30 x7))) (?v_20 (f0_1 x16))) (let ((?v_128 (distinct ?v_20 x31)) (?v_60 (= x24 (f0_2 x27 x14))) (?v_33 (distinct x21 (f0_2 x7 x28))) (?v_183 (distinct (f0_1 x32) x6)) (?v_3 (= (f0_2 x38 x20) (f0_1 x24))) (?v_127 (= ?v_109 (f0_2 x32 x21))) (?v_95 (= (f0_2 x35 x3) (f0_2 x15 x21))) (?v_38 (= (f0_1 x23) (f0_2 x21 x31))) (?v_126 (= (f0_1 x30) (f0_1 x18))) (?v_92 (distinct x1 (f0_2 x12 x26))) (?v_23 (distinct x38 (f0_2 x13 x0))) (?v_15 (f0_1 x4))) (let ((?v_101 (= ?v_15 (f0_1 x33))) (?v_112 (distinct x0 (f0_1 x5))) (?v_42 (distinct x36 (f0_2 x3 x20))) (?v_32 (distinct (f0_2 x36 x27) (f0_2 x30 x0))) (?v_34 (distinct (f0_2 x19 x31) (f0_2 x7 x37))) (?v_114 (= (f0_2 x24 x5) (f0_2 x18 x2))) (?v_61 (distinct x26 x22)) (?v_195 (distinct x7 (f0_2 x34 x17))) (?v_25 (= x2 ?v_15)) (?v_49 (= x13 (f0_1 x27))) (?v_131 (= (f0_2 x22 x36) (f0_2 x12 x19))) (?v_170 (distinct (f0_1 x3) (f0_2 x3 x33))) (?v_67 (distinct (f0_1 x9) (f0_2 x2 x15))) (?v_120 (distinct x4 ?v_20)) (?v_111 (= (f0_1 x21) ?v_20)) (?v_44 (= (f0_1 x17) (f0_2 x25 x18))) (?v_176 (= (f0_1 x15) (f0_2 x12 x13))) (?v_2 (= (f0_2 x18 x15) x34)) (?v_47 (distinct x9 ?v_15))) (let ((?v_6 (not ?v_44)) (?v_1 (not ?v_103)) (?v_40 (not ?v_183)) (?v_179 (not ?v_86)) (?v_80 (not P26)) (?v_90 (not P6)) (?v_0 (not ?v_112)) (?v_82 (not P1)) (?v_133 (not P14)) (?v_143 (not ?v_19)) (?v_167 (not P27)) (?v_14 (not ?v_31)) (?v_45 (not P7)) (?v_59 (not ?v_24)) (?v_97 (not ?v_49)) (?v_9 (not P33)) (?v_18 (not P35)) (?v_150 (not P16)) (?v_78 (not ?v_7)) (?v_122 (not ?v_42)) (?v_37 (not ?v_74)) (?v_46 (not P19)) (?v_43 (not P13)) (?v_201 (not P32)) (?v_29 (not ?v_139)) (?v_22 (not P4)) (?v_17 (not ?v_111)) (?v_197 (not P29)) (?v_72 (not P3)) (?v_48 (not ?v_32)) (?v_77 (not ?v_3)) (?v_26 (not P12)) (?v_156 (not P23)) (?v_107 (not ?v_101)) (?v_102 (not ?v_126)) (?v_94 (not P37)) (?v_68 (not P28)) (?v_27 (not ?v_2)) (?v_113 (not ?v_25)) (?v_98 (not ?v_131)) (?v_52 (not P25)) (?v_50 (not P18)) (?v_142 (not ?v_34)) (?v_85 (not P9)) (?v_144 (not ?v_41)) (?v_84 (not P11)) (?v_172 (not P22)) (?v_162 (not ?v_114)) (?v_108 (not ?v_47)) (?v_76 (not ?v_120)) (?v_124 (not ?v_38)) (?v_69 (not ?v_158)) (?v_135 (not P20)) (?v_71 (not P34)) (?v_87 (not ?v_60)) (?v_171 (not P31)) (?v_81 (not ?v_67)) (?v_110 (not P17)) (?v_100 (not P21)) (?v_89 (not P39)) (?v_141 (not P24)) (?v_123 (not ?v_95)) (?v_115 (not P38)) (?v_130 (not P8)) (?v_125 (not ?v_23)) (?v_121 (not ?v_176)) (?v_177 (not P10)) (?v_164 (not ?v_117)) (?v_132 (not ?v_127)) (?v_140 (not P5)) (?v_203 (not ?v_128)) (?v_193 (not P36)) (?v_161 (not ?v_195)) (?v_157 (not P30)) (?v_154 (not ?v_53)) (?v_166 (not ?v_92)) (?v_169 (not ?v_159)) (?v_189 (not ?v_170)) (?v_180 (not P0)) (?v_181 (not ?v_33)) (?v_186 (not ?v_73))) (let ((?v_187 (or ?v_166 P33)) (?v_198 (not ?v_61)) (?v_192 (not ?v_184)) (?v_194 (not P2)) (?v_200 (not P15)) (?v_199 (not ?v_104)) (?v_70 (< (+ (- 0 (* 16 x6)) (* 27 x14)) 29))) (let ((?v_63 (not ?v_70)) (?v_148 (< (+ (* 43 x13) (* 33 x26) (* 18 x17)) 41)) (?v_64 (< (+ (* 33 x13) (* 57 x17) (* 27 x33)) 57)) (?v_57 (< (+ (* 9 x20) (* 55 x1) (* 4 x38)) 12))) (let ((?v_118 (not ?v_57)) (?v_93 (<= (+ (* 51 x24) (* 40 x12) (* 20 x14)) 25)) (?v_129 (not ?v_64))) (let ((?v_116 (not ?v_93)) (?v_155 (not ?v_148)) (?v_136 (<= (- (+ (* (- 25) x1) (* 27 x27)) (* 33 x18)) (- 41))) (?v_10 (< (+ ?v_55 (* 4 x32)) (- 7)))) (let ((?v_16 (not ?v_10)) (?v_54 (< (+ (- (* (- 54) x14) (* 54 x15)) (* 7 x9)) 23))) (let ((?v_8 (not ?v_54)) (?v_5 (distinct (+ (* (- 19) x14) (* 12 x9) (* 5 x12)) (- 3))) (?v_4 (= (- (+ (* (- 13) x2) (* 12 x35)) (* 5 x19)) (- 11))) (?v_28 (<= (+ (* 35 x16) (* 30 x30) (* 5 x10)) (- 23))) (?v_147 (<= (+ (* (- 16) x38) (* 45 x38) (* 38 x14)) 48))) (let ((?v_146 (not ?v_4)) (?v_13 (distinct (- (+ (* (- 52) x7) (* 24 x17)) (* 48 x31)) 45))) (let ((?v_36 (not ?v_13)) (?v_91 (= (+ (* (- 2) x15) (* 52 x5) (* 26 x18)) 25))) (let ((?v_51 (not ?v_91)) (?v_56 (< (- (+ (* 14 x24) x37) (* 39 x27)) (- 1))) (?v_62 (< (+ (- (* (- 5) x25) (* 41 x9)) (* 33 x10)) (- 34))) (?v_11 (<= (+ (- (* (- 50) x24) (* 8 x10)) (* 39 x39)) 44)) (?v_149 (<= (+ (- (* (- 35) x28) (* 44 x21)) (* 8 x34)) 41)) (?v_105 (<= (+ (- (* (- 17) x11) (* 9 x23)) (* 14 x17)) 47))) (let ((?v_12 (not ?v_105)) (?v_21 (not ?v_11)) (?v_96 (not ?v_5)) (?v_79 (= (- (- (* 51 x38) (* 17 x14)) x17) (- 30)))) (let ((?v_165 (not ?v_79)) (?v_30 (= (+ (- (* (- 9) x1) (* 52 x33)) (* 29 x5)) 48))) (let ((?v_39 (not ?v_30)) (?v_83 (<= (- (- (* 36 x10) (* 46 x35)) (* 20 x8)) (- 13)))) (let ((?v_174 (not ?v_83)) (?v_88 (< (+ (- (* (- 20) x13) x21) (* 27 x31)) (- 16)))) (let ((?v_137 (not ?v_88)) (?v_66 (<= (+ (* (- 54) x37) (* 15 x3) (* 57 x27)) (- 14))) (?v_138 (<= (+ (* (- 11) x20) (* 15 x20) (* 46 x5)) 50)) (?v_35 (< (- (+ (* (- 45) x5) (* 28 x22)) (* 34 x3)) (- 31)))) (let ((?v_65 (not ?v_35)) (?v_99 (<= (- (- (* 23 x10) (* 22 x5)) (* 34 x13)) (- 11))) (?v_190 (<= (- ?v_55 (* 17 x4)) (- 31)))) (let ((?v_182 (not ?v_190)) (?v_58 (not ?v_56)) (?v_75 (< (- (+ (* 52 x31) (* 52 x12)) (* 51 x2)) (- 45))) (?v_175 (not ?v_62))) (let ((?v_205 (not ?v_75)) (?v_106 (<= (+ (- (* (- 44) x34) (* 37 x26)) (* 29 x32)) (- 34))) (?v_151 (not ?v_28)) (?v_173 (not ?v_99)) (?v_119 (<= (+ (- (* (- 17) x30) (* 53 x22)) (* 2 x33)) 29))) (let ((?v_145 (not ?v_119)) (?v_152 (< (+ (- (* (- 23) x7) (* 39 x2)) ?v_160) 20))) (let ((?v_134 (not ?v_152)) (?v_178 (not ?v_136)) (?v_188 (not ?v_138)) (?v_153 (not ?v_106)) (?v_185 (not ?v_149)) (?v_168 (<= (- (- ?v_160 (* 30 x8)) (* 23 x17)) (- 43)))) (let ((?v_163 (not ?v_168)) (?v_204 (not ?v_147)) (?v_191 (<= (+ (- (* (- 19) x10) (* 46 x19)) (* 2 x19)) (- 44))) (?v_202 (not ?v_66))) (let ((?v_196 (not ?v_191))) (and (and (and (and (and (and (and (and (and (and (and (and (and (and (and (and (and (and (and (and (and (and (and (and (and (and (and (and (and (and (and (and (and (and (and (and (and (and (and (and (and (and (and (and (and (and (and (and (and (and (and (and (and (and (and (and (and (and (and (and (and (and (and (and (and (and (and (and (and (and (and (and (and (and (and (and (and (and (and (and (and (and (and (and (and (and (and (and (and (and (and (and (and (and (and (and (and (and (and (and (and (and (and (and (and (and (and (and (and (and (and (and (and (and (and (and (and (and (and (and (and (and (and (and (and (and (and (and (and (and (and (and (and (and (and (and (and (and (and (and (and (and (and (and (and (and (and (and (and (and (and (and (and (and (and (and (and (and (and (and (and (and (and (and (and (and (and (and (and (and (and (and (and (and (and (and (and (and (and (and (and (and (and (and (and (and (and (and (and (and (and (and (and (and (and (and (and (and (and (and (and (and (and (and (and (and (and (and (and (and (and (and (and (and (and (and (and (and (and (and (and (and (and (and (and (and (and (and (and (and (and (and (and (and (and (and (and (and (and (and (and (and (and (and (and (and (and (and (and (and (and (and (and (and (and (and (and (and (and (and (and (and (and (and (and (and (and (and (and (and (and (and (and (and (and (and (and (and (and (and (and (and (and (and (and (and (and (and (and (and (and (and (and (and (and (and (and (and (and (and (and (and (and (and (and (and (and (and (and (and (and (and (and (and (and (and (and (and (and (and (and (and (and (and (and (and (and (and (and (and (and (and (and (and (and (and (and (and (and (and (and (and (and (and (and (and (and (and (and (and (and (and (and (and (and (and (and (and (and (and (and (and (and (and (and (and (and (and (and (and (and (and (and (and (and (and (and (and (and (and (and (and (and (and (and (and (and (and (and (and (and (and (and (and (and (and (and (and (and (and (and (and (and (and (and (and (and (and (and (and (and (and (and (and (and (and (and (and (and (and (and (and (and (and (and (and (and (and (and (and (and (and (and (and (and (and (and (and (and (and (and (and (and (and (and (and (and (and (and (and (and (and (and (and (and (and (and (and (and (and (and (and (and (and (and (and (and (and (and (and (and (and (and (and (and (and (and (and (and (or (or ?v_6 ?v_1) P0) (or (or ?v_40 P2) ?v_179)) (or (or ?v_80 ?v_53) ?v_3)) (or (or ?v_90 ?v_136) ?v_2)) (or (or ?v_0 ?v_82) P4)) (or (or ?v_133 ?v_143) ?v_167)) (or (or ?v_16 ?v_0) ?v_1)) (or (or P10 ?v_8) ?v_2)) (or (or ?v_14 ?v_23) ?v_45)) (or (or ?v_2 ?v_63) ?v_5)) (or (or P34 P8) ?v_4)) (or (or ?v_28 ?v_147) ?v_3)) (or (or ?v_61 ?v_59) ?v_97)) (or (or ?v_146 ?v_36) ?v_9)) (or (or ?v_18 ?v_51) ?v_5)) (or (or P33 P34) ?v_56)) (or (or ?v_150 ?v_78) P24)) (or (or ?v_122 ?v_6) ?v_62)) (or (or ?v_37 ?v_11) ?v_7)) (or (or ?v_149 ?v_8) ?v_46)) (or (or ?v_12 ?v_43) ?v_9)) (or (or ?v_10 ?v_73) ?v_201)) (or (or ?v_29 ?v_22) ?v_47)) (or (or ?v_21 ?v_12) P37)) (or (or ?v_17 P26) ?v_13)) (or (or ?v_34 ?v_197) ?v_96)) (or (or ?v_33 ?v_14) ?v_72)) (or (or ?v_25 ?v_48) ?v_77)) (or (or P9 ?v_16) ?v_26)) (or (or ?v_165 ?v_9) P9)) (or (or ?v_17 ?v_18) ?v_19)) (or (or ?v_128 ?v_11) P35)) (or (or ?v_156 ?v_107) P13)) (or (or ?v_38 ?v_16) ?v_102)) (or (or ?v_21 ?v_22) ?v_23)) (or (or ?v_10 ?v_39) P16)) (or (or ?v_94 ?v_174) ?v_137)) (or (or ?v_68 ?v_60) ?v_24)) (or (or ?v_24 ?v_66) P33)) (or (or P15 ?v_27) ?v_113)) (or (or ?v_92 ?v_26) ?v_27)) (or (or ?v_28 ?v_148) ?v_29)) (or (or P17 ?v_30) ?v_138)) (or (or ?v_26 ?v_64) ?v_65)) (or (or ?v_31 P6) ?v_41)) (or (or ?v_32 P18) ?v_98)) (or (or P12 ?v_33) P4)) (or (or ?v_52 ?v_50) ?v_142)) (or (or P21 ?v_35) ?v_18)) (or (or P33 ?v_19) P27)) (or (or P16 ?v_7) P22)) (or (or ?v_36 ?v_37) P22)) (or (or ?v_38 P18) ?v_85)) (or (or ?v_39 ?v_40) ?v_144)) (or (or P5 ?v_84) ?v_42)) (or (or ?v_22 ?v_43) ?v_1)) (or (or P17 ?v_8) P25)) (or (or P39 P37) ?v_44)) (or (or P5 ?v_45) ?v_57)) (or (or ?v_6 ?v_28) ?v_172)) (or (or P31 ?v_99) ?v_14)) (or (or ?v_162 ?v_46) ?v_108)) (or (or ?v_48 ?v_49) ?v_50)) (or (or ?v_67 ?v_42) ?v_30)) (or (or P3 ?v_51) ?v_76)) (or (or ?v_52 ?v_53) ?v_54)) (or (or ?v_182 ?v_58) P28)) (or (or ?v_118 ?v_58) ?v_124)) (or (or ?v_59 ?v_41) ?v_69)) (or (or ?v_135 ?v_71) ?v_87)) (or (or P2 ?v_11) ?v_93)) (or (or P21 P5) ?v_75)) (or (or ?v_171 P14) ?v_26)) (or (or ?v_61 ?v_117) ?v_175)) (or (or ?v_63 ?v_129) ?v_17)) (or (or ?v_65 ?v_66) P7)) (or (or ?v_44 ?v_45) ?v_81)) (or (or P0 ?v_68) ?v_69)) (or (or ?v_46 ?v_70) P36)) (or (or ?v_71 ?v_11) ?v_72)) (or (or ?v_6 ?v_184) ?v_73)) (or (or ?v_110 ?v_25) ?v_34)) (or (or ?v_74 ?v_205) ?v_76)) (or (or ?v_77 ?v_78) ?v_58)) (or (or ?v_79 ?v_31) P21)) (or (or ?v_80 ?v_81) ?v_82)) (or (or ?v_83 ?v_106) ?v_84)) (or (or ?v_95 ?v_100) ?v_42)) (or (or ?v_104 ?v_85) P25)) (or (or ?v_33 ?v_86) ?v_87)) (or (or ?v_88 P26) P34)) (or (or ?v_89 ?v_89) P10)) (or (or P36 P7) ?v_90)) (or (or ?v_91 ?v_8) ?v_92)) (or (or ?v_72 ?v_116) ?v_23)) (or (or ?v_94 ?v_74) ?v_141)) (or (or ?v_123 ?v_96) ?v_151)) (or (or ?v_91 ?v_97) ?v_89)) (or (or ?v_98 ?v_173) ?v_14)) (or (or P6 P23) ?v_22)) (or (or ?v_115 P21) ?v_90)) (or (or ?v_100 ?v_66) P35)) (or (or ?v_1 P17) ?v_101)) (or (or ?v_83 ?v_102) P30)) (or (or ?v_94 ?v_130) ?v_49)) (or (or ?v_70 ?v_19) ?v_103)) (or (or ?v_104 ?v_36) ?v_105)) (or (or ?v_106 ?v_125) ?v_107)) (or (or ?v_62 ?v_108) ?v_90)) (or (or ?v_127 ?v_40) ?v_14)) (or (or ?v_4 P30) P12)) (or (or ?v_110 ?v_145) P25)) (or (or ?v_3 ?v_1) ?v_9)) (or (or ?v_45 ?v_111) ?v_43)) (or (or ?v_46 P36) P31)) (or (or ?v_121 ?v_177) ?v_112)) (or (or ?v_65 ?v_113) ?v_114)) (or (or ?v_72 ?v_56) ?v_113)) (or (or ?v_115 ?v_73) ?v_114)) (or (or P13 ?v_116) ?v_117)) (or (or ?v_111 P19) P8)) (or (or P12 ?v_29) P33)) (or (or P5 ?v_118) ?v_33)) (or (or ?v_93 ?v_119) P34)) (or (or ?v_87 ?v_120) P10)) (or (or P37 ?v_121) ?v_89)) (or (or ?v_37 P19) ?v_134)) (or (or ?v_122 ?v_45) ?v_77)) (or (or ?v_123 ?v_164) ?v_69)) (or (or ?v_124 P12) P8)) (or (or P11 ?v_84) P28)) (or (or ?v_125 ?v_126) ?v_132)) (or (or ?v_17 ?v_125) ?v_39)) (or (or P5 ?v_30) P21)) (or (or P34 ?v_118) ?v_59)) (or (or P19 ?v_101) ?v_11)) (or (or ?v_62 ?v_37) ?v_61)) (or (or ?v_23 ?v_2) ?v_5)) (or (or P29 ?v_140) ?v_49)) (or (or ?v_88 ?v_124) P13)) (or (or ?v_203 ?v_129) ?v_5)) (or (or P10 ?v_39) ?v_130)) (or (or ?v_131 ?v_132) ?v_133)) (or (or ?v_105 ?v_4) ?v_116)) (or (or ?v_134 ?v_71) ?v_135)) (or (or ?v_193 P30) ?v_178)) (or (or ?v_137 ?v_188) ?v_139)) (or (or ?v_140 ?v_126) P8)) (or (or ?v_78 ?v_84) P19)) (or (or ?v_79 ?v_84) P19)) (or (or P3 ?v_153) ?v_141)) (or (or ?v_142 ?v_77) ?v_161)) (or (or ?v_87 ?v_143) ?v_51)) (or (or ?v_144 ?v_145) ?v_146)) (or (or ?v_147 P12) ?v_157)) (or (or ?v_18 ?v_124) ?v_19)) (or (or ?v_67 P38) ?v_140)) (or (or ?v_155 ?v_185) ?v_136)) (or (or P34 ?v_150) ?v_154)) (or (or ?v_105 ?v_26) P3)) (or (or ?v_114 ?v_143) P10)) (or (or P32 ?v_46) ?v_151)) (or (or ?v_120 ?v_60) P8)) (or (or ?v_46 ?v_126) P8)) (or (or ?v_166 ?v_152) ?v_22)) (or (or P23 ?v_144) ?v_140)) (or (or ?v_60 P13) ?v_97)) (or (or P7 ?v_1) ?v_21)) (or (or ?v_159 ?v_153) ?v_54)) (or (or ?v_154 ?v_155) ?v_156)) (or (or ?v_143 ?v_128) ?v_35)) (or (or P21 ?v_130) ?v_78)) (or (or ?v_62 ?v_157) ?v_102)) (or (or ?v_89 ?v_124) ?v_23)) (or (or ?v_84 ?v_158) ?v_169)) (or (or P4 ?v_159) ?v_123)) (or (or ?v_64 ?v_116) ?v_3)) (or (or ?v_73 P23) ?v_189)) (or (or ?v_163 ?v_12) ?v_157)) (or (or ?v_161 ?v_87) ?v_82)) (or (or ?v_110 P4) ?v_162)) (or (or ?v_163 ?v_33) ?v_36)) (or (or ?v_5 ?v_101) ?v_83)) (or (or ?v_164 ?v_142) ?v_32)) (or (or P38 ?v_25) ?v_65)) (or (or ?v_62 ?v_105) ?v_76)) (or (or ?v_165 ?v_111) ?v_87)) (or (or P12 ?v_166) ?v_71)) (or (or ?v_102 ?v_167) ?v_154)) (or (or P33 P25) ?v_151)) (or (or ?v_122 ?v_11) ?v_26)) (or (or ?v_168 ?v_97) ?v_157)) (or (or ?v_130 ?v_88) ?v_136)) (or (or P20 ?v_84) ?v_54)) (or (or ?v_113 P17) ?v_71)) (or (or P24 ?v_106) ?v_52)) (or (or ?v_52 ?v_107) ?v_144)) (or (or ?v_3 ?v_19) ?v_95)) (or (or ?v_23 ?v_99) ?v_9)) (or (or ?v_169 ?v_96) ?v_170)) (or (or P30 ?v_138) P27)) (or (or ?v_5 ?v_128) ?v_61)) (or (or ?v_32 ?v_93) P31)) (or (or P30 ?v_171) ?v_90)) (or (or P36 ?v_24) ?v_122)) (or (or ?v_118 ?v_92) ?v_117)) (or (or ?v_77 ?v_121) ?v_129)) (or (or ?v_151 ?v_172) ?v_92)) (or (or ?v_161 ?v_159) P27)) (or (or P12 P35) ?v_60)) (or (or ?v_92 ?v_138) P28)) (or (or P38 ?v_173) ?v_2)) (or (or ?v_148 ?v_10) ?v_56)) (or (or ?v_136 ?v_161) ?v_143)) (or (or ?v_132 ?v_174) ?v_125)) (or (or ?v_1 ?v_133) ?v_40)) (or (or ?v_56 P14) ?v_48)) (or (or ?v_50 ?v_5) ?v_45)) (or (or P18 ?v_110) ?v_68)) (or (or ?v_59 ?v_47) ?v_58)) (or (or ?v_169 P10) ?v_146)) (or (or ?v_97 ?v_165) ?v_102)) (or (or ?v_141 ?v_168) ?v_74)) (or (or P35 P37) ?v_1)) (or (or ?v_57 ?v_83) ?v_4)) (or (or ?v_37 ?v_130) ?v_175)) (or (or ?v_69 P2) ?v_19)) (or (or ?v_5 ?v_176) ?v_82)) (or (or ?v_2 ?v_161) P22)) (or (or ?v_173 ?v_97) P18)) (or (or ?v_17 P32) ?v_94)) (or (or ?v_177 ?v_129) ?v_60)) (or (or P5 ?v_76) ?v_103)) (or (or ?v_204 ?v_93) ?v_173)) (or (or ?v_66 ?v_164) ?v_104)) (or (or ?v_167 ?v_159) ?v_113)) (or (or ?v_100 P14) ?v_76)) (or (or ?v_53 ?v_8) ?v_180)) (or (or ?v_4 ?v_178) ?v_47)) (or (or ?v_62 P16) ?v_179)) (or (or ?v_161 ?v_140) P25)) (or (or ?v_79 ?v_27) ?v_126)) (or (or ?v_181 ?v_72) ?v_110)) (or (or P26 ?v_4) ?v_45)) (or (or ?v_180 ?v_172) ?v_73)) (or (or ?v_181 ?v_158) P35)) (or (or ?v_51 P35) P12)) (or (or ?v_76 ?v_49) ?v_111)) (or (or ?v_25 ?v_46) ?v_8)) (or (or P30 ?v_72) ?v_45)) (or (or P22 ?v_182) ?v_183)) (or (or ?v_18 ?v_98) ?v_191)) (or (or P31 P15) ?v_89)) (or (or ?v_119 ?v_99) ?v_57)) (or (or ?v_76 ?v_40) ?v_179)) (or (or ?v_156 ?v_164) ?v_60)) (or (or P3 ?v_35) ?v_82)) (or (or P8 ?v_103) ?v_10)) (or (or ?v_135 ?v_6) ?v_186)) (or (or ?v_159 P5) ?v_113)) (or (or ?v_169 ?v_77) ?v_5)) (or (or ?v_25 ?v_57) P16)) (or (or ?v_129 ?v_61) ?v_23)) (or (or ?v_9 ?v_139) P18)) (or (or ?v_94 P7) ?v_158)) (or (or P10 P4) ?v_91)) (or (or P13 ?v_202) ?v_165)) (or (or P26 ?v_98) P2)) (or (or ?v_49 ?v_169) ?v_164)) (or (or ?v_184 ?v_162) ?v_177)) (or (or ?v_83 ?v_146) ?v_185)) (or (or P35 ?v_119) P30)) (or ?v_187 ?v_184)) (or (or ?v_167 P11) ?v_49)) (or (or ?v_56 ?v_146) ?v_39)) (or (or ?v_120 P8) ?v_161)) (or (or ?v_116 ?v_198) ?v_51)) (or (or P25 ?v_113) ?v_145)) (or (or ?v_19 ?v_110) ?v_84)) (or (or ?v_51 ?v_113) P5)) (or (or ?v_178 ?v_155) ?v_186)) (or ?v_187 P6)) (or (or ?v_96 ?v_34) ?v_84)) (or (or ?v_12 ?v_10) ?v_151)) (or (or P17 P34) ?v_152)) (or (or ?v_29 ?v_144) ?v_156)) (or (or ?v_27 P34) ?v_150)) (or (or ?v_127 ?v_181) ?v_71)) (or (or ?v_130 P34) ?v_168)) (or (or P22 ?v_153) ?v_26)) (or (or ?v_67 ?v_50) ?v_71)) (or (or ?v_181 ?v_162) ?v_158)) (or (or ?v_188 P19) ?v_123)) (or (or ?v_179 ?v_60) ?v_134)) (or (or P26 ?v_125) ?v_47)) (or (or P24 ?v_107) ?v_37)) (or (or ?v_108 ?v_140) P27)) (or (or ?v_106 ?v_29) ?v_189)) (or (or ?v_31 ?v_131) ?v_42)) (or (or ?v_3 ?v_190) ?v_110)) (or (or ?v_161 ?v_9) ?v_191)) (or (or ?v_99 ?v_21) ?v_80)) (or (or P31 P1) ?v_75)) (or (or ?v_81 ?v_14) ?v_178)) (or (or ?v_176 ?v_128) ?v_183)) (or (or P26 ?v_86) ?v_113)) (or (or P24 ?v_108) P10)) (or (or ?v_73 ?v_123) P16)) (or (or ?v_64 P26) ?v_100)) (or (or ?v_23 P18) ?v_188)) (or (or ?v_12 ?v_184) P33)) (or (or ?v_16 ?v_52) ?v_192)) (or (or ?v_105 ?v_102) ?v_189)) (or (or ?v_75 P21) ?v_125)) (or (or ?v_117 ?v_64) ?v_26)) (or (or ?v_180 ?v_166) ?v_192)) (or (or ?v_133 ?v_140) ?v_53)) (or (or P24 P9) ?v_139)) (or (or ?v_73 ?v_74) ?v_146)) (or (or ?v_6 ?v_5) ?v_143)) (or (or ?v_111 ?v_165) P34)) (or (or ?v_179 ?v_86) ?v_4)) (or (or ?v_176 ?v_139) ?v_28)) (or (or ?v_188 ?v_90) ?v_48)) (or (or ?v_39 ?v_143) ?v_40)) (or (or ?v_14 ?v_164) P14)) (or (or ?v_100 ?v_45) ?v_144)) (or (or ?v_42 P12) ?v_61)) (or (or ?v_196 ?v_127) ?v_123)) (or (or ?v_44 ?v_157) ?v_73)) (or (or ?v_179 P20) ?v_153)) (or (or ?v_11 P34) ?v_96)) (or (or P24 P3) ?v_37)) (or (or ?v_71 P14) ?v_61)) (or (or ?v_194 P31) ?v_4)) (or (or ?v_100 ?v_23) P32)) (or (or ?v_169 ?v_78) ?v_8)) (or (or ?v_129 P13) ?v_51)) (or (or ?v_193 ?v_65) ?v_3)) (or (or ?v_180 ?v_23) ?v_82)) (or (or ?v_176 ?v_113) ?v_9)) (or (or ?v_173 ?v_78) ?v_95)) (or (or ?v_145 ?v_125) ?v_144)) (or (or ?v_93 ?v_72) ?v_129)) (or (or ?v_8 ?v_18) ?v_194)) (or (or ?v_193 ?v_182) ?v_62)) (or (or ?v_7 ?v_190) P7)) (or (or ?v_4 ?v_28) ?v_195)) (or (or ?v_154 ?v_61) ?v_122)) (or (or ?v_152 ?v_128) ?v_53)) (or (or ?v_43 P35) ?v_166)) (or (or ?v_196 P31) ?v_48)) (or (or ?v_153 ?v_146) ?v_197)) (or (or ?v_134 ?v_86) ?v_100)) (or (or ?v_57 ?v_91) ?v_140)) (or (or ?v_116 P4) ?v_70)) (or (or ?v_121 ?v_86) ?v_155)) (or (or ?v_76 ?v_31) ?v_185)) (or (or ?v_86 ?v_151) ?v_47)) (or (or ?v_134 ?v_21) P26)) (or (or ?v_22 ?v_136) ?v_163)) (or (or ?v_48 ?v_30) P26)) (or (or ?v_80 ?v_89) P20)) (or (or P17 ?v_185) ?v_52)) (or (or P22 ?v_36) ?v_96)) (or (or ?v_53 ?v_139) ?v_77)) (or (or ?v_34 ?v_13) ?v_167)) (or (or ?v_0 ?v_131) ?v_192)) (or (or ?v_54 ?v_168) ?v_39)) (or (or ?v_165 ?v_46) ?v_186)) (or (or ?v_198 ?v_87) ?v_168)) (or (or ?v_145 ?v_104) ?v_184)) (or (or P15 ?v_94) ?v_2)) (or (or ?v_118 ?v_121) ?v_35)) (or (or ?v_120 ?v_158) ?v_42)) (or (or P1 ?v_183) ?v_175)) (or (or P25 ?v_184) ?v_95)) (or (or ?v_197 ?v_140) ?v_142)) (or (or ?v_5 ?v_115) ?v_99)) (or (or ?v_174 ?v_185) P17)) (or (or ?v_68 ?v_74) P3)) (or (or ?v_71 ?v_191) ?v_51)) (or (or ?v_81 ?v_185) ?v_111)) (or (or ?v_164 P25) ?v_82)) (or (or ?v_188 ?v_153) P22)) (or (or ?v_37 P26) ?v_63)) (or (or ?v_123 P28) ?v_176)) (or (or ?v_200 P7) ?v_123)) (or (or ?v_54 ?v_49) ?v_99)) (or (or ?v_120 ?v_74) ?v_26)) (or (or ?v_194 ?v_89) ?v_99)) (or (or P32 ?v_73) ?v_33)) (or (or ?v_114 ?v_92) ?v_28)) (or (or ?v_36 ?v_163) ?v_97)) (or (or ?v_162 ?v_131) P34)) (or (or ?v_188 ?v_86) ?v_75)) (or (or ?v_152 ?v_185) ?v_170)) (or (or ?v_154 ?v_17) ?v_50)) (or (or ?v_63 ?v_88) P1)) (or (or ?v_8 ?v_66) ?v_102)) (or (or ?v_66 ?v_84) ?v_105)) (or (or ?v_87 ?v_12) ?v_54)) (or (or ?v_103 ?v_139) ?v_101)) (or (or ?v_4 ?v_199) ?v_30)) (or (or ?v_47 ?v_97) ?v_161)) (or (or ?v_148 ?v_181) ?v_114)) (or (or ?v_148 ?v_162) ?v_50)) (or (or ?v_194 ?v_158) ?v_84)) (or (or ?v_159 ?v_161) ?v_71)) (or (or ?v_114 ?v_162) ?v_112)) (or (or ?v_32 P1) P14)) (or (or ?v_102 ?v_36) ?v_174)) (or (or ?v_88 ?v_67) ?v_119)) (or (or ?v_186 P21) P2)) (or (or ?v_169 ?v_100) P20)) (or (or ?v_5 ?v_41) ?v_172)) (or (or ?v_44 P22) ?v_186)) (or (or ?v_27 ?v_34) ?v_199)) (or (or ?v_17 ?v_169) ?v_142)) (or (or ?v_182 ?v_96) ?v_191)) (or (or ?v_56 ?v_200) ?v_64)) (or (or ?v_117 ?v_190) ?v_134)) (or (or ?v_91 ?v_118) ?v_44)) (or (or ?v_143 ?v_99) ?v_144)) (or (or ?v_13 P14) ?v_53)) (or (or ?v_37 P31) ?v_118)) (or (or P37 ?v_59) ?v_48)) (or (or ?v_132 ?v_57) ?v_136)) (or (or ?v_151 ?v_84) ?v_116)) (or (or ?v_29 ?v_139) ?v_44)) (or (or ?v_165 P23) ?v_191)) (or (or P5 ?v_123) ?v_166)) (or (or ?v_138 ?v_13) ?v_111)) (or (or ?v_112 P15) ?v_201)) (or (or ?v_11 ?v_163) ?v_48)) (or (or ?v_103 P11) ?v_18)) (or (or ?v_202 P11) ?v_42)) (or (or ?v_189 P24) ?v_166)) (or (or ?v_50 P32) ?v_119)) (or (or ?v_53 ?v_52) ?v_0)) (or (or ?v_77 P23) P37)) (or (or ?v_155 ?v_78) ?v_179)) (or (or ?v_6 ?v_147) ?v_137)) (or (or ?v_10 ?v_3) ?v_63)) (or (or ?v_188 ?v_47) P30)) (or (or P38 P39) ?v_121)) (or (or ?v_96 ?v_94) ?v_68)) (or (or ?v_173 ?v_24) ?v_110)) (or (or ?v_147 ?v_197) ?v_6)) (or (or ?v_16 P6) ?v_123)) (or (or ?v_186 ?v_149) ?v_176)) (or (or ?v_49 ?v_197) ?v_180)) (or (or ?v_120 ?v_111) ?v_168)) (or (or P25 ?v_18) ?v_195)) (or (or ?v_64 ?v_33) ?v_76)) (or (or ?v_52 ?v_59) ?v_47)) (or (or ?v_131 ?v_22) ?v_139)) (or (or ?v_135 ?v_64) ?v_10)) (or (or ?v_81 ?v_92) ?v_52)) (or (or ?v_203 ?v_23) ?v_120)) (or (or ?v_7 ?v_179) ?v_104)) (or (or ?v_196 ?v_140) ?v_189)) (or (or ?v_50 ?v_137) ?v_10)) (or (or ?v_32 ?v_98) ?v_37)) (or (or P10 P20) ?v_137)) (or (or ?v_7 ?v_161) ?v_204)) (or (or ?v_93 ?v_124) ?v_88)) (or (or ?v_122 P25) P18)) (or (or ?v_95 ?v_202) ?v_163)) (or (or ?v_183 ?v_125) P27)) (or (or ?v_196 ?v_172) ?v_12)) (or (or ?v_143 ?v_9) ?v_98)) (or (or ?v_103 ?v_121) ?v_198)) (or (or ?v_48 ?v_64) ?v_82)) (or (or ?v_189 ?v_111) ?v_7)) (or (or ?v_154 ?v_68) P20)) (or (or ?v_1 P20) ?v_118)) (or (or P27 P12) ?v_69)) (or (or ?v_205 ?v_116) ?v_171)) (or (or ?v_39 P38) ?v_12)))))))))))))))))))))))))))))
(check-sat)
(exit)
